param n := 38;
param c := 100;
param w := 
1 99
2 98
3 96
4 94
5 92
6 91
7 86
8 85
9 80
10 80
11 79
12 76
13 75
14 75
15 72
16 70
17 69
18 69
19 68
20 66
21 66
22 64
23 64
24 63
25 56
26 48
27 47
28 29
29 28
30 26
31 23
32 22
33 21
34 19
35 18
36 11
37 8
38 3
;